p wcnf 71 107 10
5 -1 0
5 -2 0
5 -3 0
5 -4 0
5 -5 0
5 -6 0
5 -7 0
5 -8 0
5 -9 0
5 -10 0
5 -11 0
5 -12 0
5 -13 0
5 -14 0
5 -15 0
5 -16 0
5 -17 0
5 -18 0
5 -19 0
5 -20 0
5 -21 0
5 -22 0
5 -23 0
5 -24 0
5 -25 0
5 -26 0
5 -27 0
5 -28 0
5 -29 0
5 -30 0
5 -31 0
5 -32 0
5 -33 0
5 -34 0
5 -35 0
5 -36 0
5 -37 0
5 -38 0
5 -39 0
5 -40 0
5 -41 0
5 -42 0
5 -43 0
5 -44 0
5 -45 0
5 -46 0
5 -47 0
5 -48 0
5 -49 0
5 -50 0
5 -51 0
5 -52 0
5 -53 0
5 -54 0
5 -55 0
5 -56 0
5 -57 0
5 -58 0
5 -59 0
5 -60 0
5 -61 0
5 -62 0
5 -63 0
5 -64 0
5 -65 0
5 -66 0
5 -67 0
5 -68 0
5 -69 0
5 -70 0
10 1 2 3 4 5 6 7 8 9 10 11 12 13 14 15 16 17 18 19 20 21 22 23 24 25 26 27 28 29 30 31 32 33 34 35 36 37 38 39 40 41 42 43 44 45 46 47 48 49 50 51 52 53 54 55 56 57 58 59 60 61 62 63 64 65 66 67 68 69 70 0
10 71 0
x 10 1 36 37 43 44 47 48 49 52 53 54 55 56 58 59 60 64 66 67 68 69 70 71 0
x 10 2 36 41 45 47 49 51 52 55 56 58 59 61 64 66 68 71 0
x 10 3 37 39 46 53 55 56 58 59 60 61 62 66 67 69 70 71 0
x 10 4 36 38 43 44 45 46 48 50 52 53 56 57 58 59 60 61 64 71 0
x 10 5 36 38 39 40 43 44 46 52 54 56 60 63 64 65 66 67 68 69 70 71 0
x 10 6 36 40 41 44 45 51 52 53 54 57 59 61 62 64 68 70 71 0
x 10 7 36 41 44 47 49 54 55 58 62 63 65 67 69 70 71 0
x 10 8 36 38 40 41 42 46 47 49 53 54 56 59 61 66 67 70 71 0
x 10 9 36 37 38 42 43 44 47 48 53 54 55 59 60 64 65 67 70 71 0
x 10 10 38 41 43 45 46 51 52 54 57 58 59 60 61 62 63 65 67 69 70 71 0
x 10 11 38 40 41 43 44 46 47 48 49 51 56 58 59 61 62 63 64 66 68 71 0
x 10 12 36 37 38 39 40 42 43 44 46 47 49 50 51 53 57 58 59 61 63 64 66 67 71 0
x 10 13 37 40 42 45 47 48 50 52 55 60 62 65 67 70 71 0
x 10 14 38 40 41 43 44 45 47 48 52 55 57 58 62 64 65 68 69 70 71 0
x 10 15 36 37 40 44 45 47 49 53 54 58 63 64 67 69 71 0
x 10 16 37 38 39 40 41 42 47 51 52 53 54 56 57 58 61 62 64 66 67 68 69 70 71 0
x 10 17 36 38 42 43 48 52 53 54 55 58 62 63 69 71 0
x 10 18 37 39 41 44 48 49 50 53 59 61 62 63 66 67 69 70 71 0
x 10 19 40 41 42 54 57 60 61 64 67 69 71 0
x 10 20 36 37 43 46 48 50 51 52 53 54 55 56 57 62 63 65 66 68 71 0
x 10 21 36 37 38 40 42 43 47 49 50 51 52 53 54 55 57 59 61 62 64 65 71 0
x 10 22 39 41 43 45 46 47 48 49 50 51 53 54 55 56 57 61 62 63 65 66 68 69 70 71 0
x 10 23 36 37 39 40 41 45 46 48 49 52 55 56 57 59 65 67 68 71 0
x 10 24 36 37 38 39 41 42 43 45 51 52 54 56 58 60 61 63 64 65 67 68 71 0
x 10 25 36 41 44 47 49 51 54 55 56 60 62 63 68 70 71 0
x 10 26 37 38 40 43 46 47 49 50 51 52 54 55 58 59 61 62 63 65 66 68 71 0
x 10 27 36 38 39 40 41 45 46 48 49 50 53 54 55 56 57 59 60 63 65 69 70 71 0
x 10 28 36 40 44 46 47 48 50 52 53 56 58 63 64 65 66 68 70 71 0
x 10 29 36 40 42 43 44 45 48 49 50 51 53 54 55 56 58 59 61 64 65 66 67 70 71 0
x 10 30 39 42 44 45 50 51 52 54 56 57 60 63 64 65 66 69 70 71 0
x 10 31 37 40 42 44 45 47 48 50 52 55 56 59 60 61 63 64 66 67 71 0
x 10 32 37 39 40 41 43 45 46 47 48 49 51 54 60 62 63 64 65 66 69 71 0
x 10 33 36 39 40 41 42 43 44 45 51 56 57 58 60 64 66 67 68 69 70 71 0
x 10 34 39 41 42 43 45 46 47 49 52 53 56 57 63 64 66 67 70 71 0
x 10 35 36 42 43 44 46 47 49 50 51 53 55 57 59 64 71 0
